3 
4 
5  09 25 40 55 
6  11 21 26 31 36 41 46 51 56 
7  01 06 11 16 21 26 31 36 41 46 51 56 
8  01 06 11 16 21 26 31 36 41 46 51 56 
9  01 06 11 16 21 26 31 36 42 48 56 
10  03 11 18 26 33 41 48 56 
11  03 11 18 26 33 41 48 56 
12  03 11 18 26 33 41 48 56 
13  03 11 18 25 33 41 48 56 
14  03 11 18 25 33 41 48 56 
15  01 06 10 16 21 26 31 36 40 46 51 55 
16  01 06 10 16 21 25 31 36 40 46 51 55 
17  01 06 10 16 21 25 31 36 40 46 51 56 
18  01 06 11 16 21 26 31 36 41 46 52 58 
19  04 11 18 26 33 41 48 56 
20  02 09 17 25 32 43 58 
21  05 13 28 43 58 
22  08 23 38 54 
23  09 
0 
